20
1 0 67
2 0 25
2 1 60
3 0 65
3 1 100
3 2 79
4 0 107
4 1 88
4 2 3
4 3 58
5 0 83
5 1 94
5 2 104
5 3 20
5 4 85
6 0 45
6 1 94
6 2 1
6 3 42
6 4 94
6 5 88
7 0 78
7 1 64
7 2 29
7 3 93
7 4 88
7 5 91
7 6 12
8 0 49
8 1 39
8 2 68
8 3 106
8 4 38
8 5 95
8 6 117
8 7 89
9 0 110
9 1 11
9 2 79
9 3 86
9 4 118
9 5 100
9 6 117
9 7 101
9 8 10
10 0 45
10 1 6
10 2 9
10 3 93
10 4 119
10 5 73
10 6 64
10 7 85
10 8 98
10 9 26
11 0 66
11 1 5
11 2 116
11 3 3
11 4 60
11 5 106
11 6 37
11 7 49
11 8 48
11 9 81
11 10 70
12 0 108
12 1 96
12 2 84
12 3 101
12 4 38
12 5 45
12 6 11
12 7 66
12 8 18
12 9 40
12 10 10
12 11 84
13 0 47
13 1 59
13 2 52
13 3 90
13 4 60
13 5 68
13 6 9
13 7 53
13 8 30
13 9 31
13 10 74
13 11 68
13 12 52
14 0 109
14 1 21
14 2 38
14 3 102
14 4 111
14 5 70
14 6 106
14 7 6
14 8 42
14 9 20
14 10 45
14 11 79
14 12 10
14 13 42
15 0 13
15 1 38
15 2 93
15 3 2
15 4 4
15 5 69
15 6 38
15 7 38
15 8 92
15 9 29
15 10 59
15 11 29
15 12 48
15 13 119
15 14 29
16 0 43
16 1 28
16 2 46
16 3 57
16 4 39
16 5 115
16 6 49
16 7 68
16 8 22
16 9 120
16 10 36
16 11 96
16 12 73
16 13 8
16 14 34
16 15 65
17 0 53
17 1 4
17 2 46
17 3 95
17 4 36
17 5 97
17 6 63
17 7 52
17 8 15
17 9 88
17 10 70
17 11 46
17 12 105
17 13 81
17 14 7
17 15 47
17 16 88
18 0 114
18 1 63
18 2 23
18 3 73
18 4 68
18 5 12
18 6 39
18 7 85
18 8 72
18 9 62
18 10 92
18 11 65
18 12 72
18 13 68
18 14 24
18 15 73
18 16 42
18 17 118
19 0 70
19 1 64
19 2 42
19 3 12
19 4 39
19 5 73
19 6 110
19 7 89
19 8 28
19 9 96
19 10 92
19 11 31
19 12 7
19 13 90
19 14 45
19 15 84
19 16 35
19 17 54
19 18 69
